proyfinal/src/viki/013/experimentInOfficeAgust.take6.output/6059f229-d544-47ed-b844-7c0a45b3cb25.als.out
Reading from standard input... Use '--help' for help.
============================[ Problem Statistics ]=============================
|                                                                             |
|  Number of variables:         87638                                         |
|  Number of clauses:          161767                                         |
|  Parse time:                   0.03 s                                       |
|                                                                             |
============================[ Search Statistics ]==============================
| Conflicts |          ORIGINAL         |          LEARNT          | Progress |
|           |    Vars  Clauses Literals |    Limit  Clauses Lit/Cl |          |
===============================================================================
|       100 |   63220   108271   270404 |    39699      100      8 | 27.862 % |
|       250 |   63220   108271   270404 |    43669      250     15 | 27.862 % |
|       475 |   63220   108271   270404 |    48036      475     61 | 27.862 % |
|       812 |   63175   108106   269968 |    52839      787     61 | 27.914 % |
|      1318 |   63175   108106   269968 |    58123     1293     70 | 27.914 % |
|      2077 |   63166   108073   269880 |    63936     2038     75 | 27.924 % |
|      3216 |   63145   107951   269585 |    70329     3158     75 | 27.948 % |
|      4924 |   63145   107951   269585 |    77362     4866     77 | 27.948 % |
|      7486 |   63145   107951   269585 |    85099     7428     95 | 27.948 % |
|     11330 |   54715    81564   204068 |    93609    10342     99 | 37.567 % |
===============================================================================
restarts              : 60
conflicts             : 13563          (7754 /sec)
decisions             : 55966          (0.00 % random) (31994 /sec)
propagations          : 16957140       (9693938 /sec)
conflict literals     : 1306403        (38.72 % deleted)
Memory used           : 39.62 MB
CPU time              : 1.74925 s

INDETERMINATE
